p cnf 25 799
5 -6 8 9 -15 19 0
8 -10 -14 -18 0
9 14 -19 -22 0
6 8 9 -10 11 19 0
5 -6 8 9 -13 -18 0
-5 -11 17 0
6 13 14 -19 0
5 -6 8 9 -10 14 0
-13 -15 18 19 -22 24 0
8 11 -13 -14 17 -18 22 23 0
8 -10 -14 -18 -19 0
8 -14 -17 -18 0
14 -22 -19 0
-10 -13 14 18 -22 24 0
8 -13 17 18 -22 24 0
8 -14 -17 -18 -19 0
-11 -13 -14 18 -22 24 0
-13 -14 17 0
-6 -9 -10 -18 -19 -25 0
-6 8 11 -14 15 -18 22 0
-6 -13 15 18 -22 24 0
10 -13 -23 0
8 9 -14 -18 0
-2 -6 -25 0
-2 13 17 0
2 22 -5 0
8 9 -14 -18 -19 0
6 -5 -17 0
5 -6 8 9 17 0
-6 -9 -10 -15 19 -25 0
8 -13 -14 -18 0
8 11 -14 17 -18 22 0
-6 -9 -10 -13 -18 -25 0
2 -11 25 0
2 10 -13 22 0
8 -13 -14 -18 -19 0
-11 5 15 0
8 -13 -14 -15 -18 19 0
-18 25 -2 0
-2 10 13 -17 0
5 -6 8 9 -11 -14 0
-23 -18 17 0
10 -13 -17 0
8 -13 -14 -18 0
5 -6 8 9 15 0
-6 -9 -10 14 -25 0
24 19 -10 0
-19 -6 22 0
-6 8 -9 -10 17 -25 0
-13 -24 2 0
6 8 -10 11 -14 17 0
8 11 -13 -14 -18 22 0
9 -14 -25 0
6 8 -10 11 -13 -14 -18 0
8 11 -14 -15 -18 19 22 0
8 -13 -14 17 -18 0
-25 -5 -8 0
8 -11 -13 -14 -18 0
-6 -9 -10 -11 -14 -25 0
18 22 -25 0
18 -17 19 0
6 8 -10 11 -14 -15 19 0
-23 10 -5 0
8 11 -14 -18 -19 22 0
-6 8 -13 -14 15 -18 0
-23 17 -6 0
-9 14 24 0
8 -13 -14 -18 -19 0
-10 -18 -19 -22 24 0
-6 -9 -10 15 -25 0
6 -10 11 -14 -17 19 0
8 -14 -18 22 0
-18 -19 8 0
8 -14 -18 -19 22 0
6 8 -10 11 -14 -18 -19 0
5 -6 -13 -14 -18 0
5 -6 -13 -14 -15 -18 19 0
2 -13 -14 -18 25 0
-24 25 22 0
-10 -15 19 -22 24 0
-22 -18 8 0
-10 -13 -18 -22 24 0
-10 -8 -22 0
-2 6 13 0
9 -13 -14 -18 -22 23 0
-8 15 -11 0
-6 19 -15 0
6 -10 11 -14 -18 -22 24 0
13 18 -14 0
6 -10 11 -14 -18 -19 -22 24 0
2 -24 -9 0
-10 14 -22 24 0
-13 -14 15 -18 19 23 0
8 -10 17 -22 24 0
-18 24 -2 0
-6 -9 -10 -14 -18 22 -25 0
-13 -14 -18 -19 22 23 0
-6 -13 -14 15 -18 22 23 0
22 18 -17 0
-13 -9 10 0
-11 -13 -14 -18 22 23 0
8 9 11 -18 19 22 0
8 11 -14 -18 22 0
6 8 -10 11 -14 -18 0
-8 -14 -18 22 0
6 -8 -10 -14 -18 0
-6 -9 -10 -14 -18 -19 22 -25 0
-10 11 -15 -18 19 22 0
8 -13 -14 17 -18 22 23 0
6 -10 11 -15 19 0
-10 11 -13 -18 19 22 0
-10 -11 -14 -22 24 0
6 -10 11 -13 -18 19 0
-6 -10 15 -22 24 0
-13 -14 -18 22 23 0
-13 -14 -15 -18 19 22 23 0
2 -13 18 19 22 0
-10 11 14 -18 19 22 0
-14 -17 -18 -19 -22 24 0
2 -14 -17 19 22 0
2 8 9 19 22 0
10 -14 -23 0
6 -10 11 14 19 0
8 -10 11 17 -18 19 22 0
-13 -14 -18 -19 22 23 0
10 -14 -17 0
2 10 -14 22 0
-14 -15 -17 19 -22 24 0
-13 -14 -18 22 23 0
-13 -14 -18 -19 23 0
10 -13 -17 18 19 0
6 8 -10 11 17 19 0
10 -14 -17 19 0
8 9 10 -17 19 0
-6 -13 -14 15 -18 23 0
-11 -13 -14 -18 23 0
8 -13 -14 17 -18 23 0
-2 10 13 -23 0
-13 -14 -18 23 0
-9 -10 -18 -19 -25 0
-9 -10 -15 19 -25 0
-13 -14 -17 -18 -22 24 0
-9 -10 -13 -18 -25 0
-9 -10 14 -25 0
-13 -14 -15 -18 19 23 0
5 8 9 -22 0
5 -14 -17 -22 0
-11 -14 -17 -22 24 0
-6 -10 11 15 -18 19 22 0
5 -13 18 -22 0
-13 -14 -18 -19 23 0
-9 -14 -17 -24 0
-6 -14 15 -17 -22 24 0
-8 11 -14 -18 19 22 0
-9 -13 18 -24 0
8 -9 -10 17 -25 0
-9 -10 -11 -14 -25 0
-6 -9 -10 15 -25 0
-13 -14 -18 23 0
8 9 -13 -14 -18 -19 23 0
-6 8 9 -13 -14 15 -18 23 0
8 9 -11 -13 -14 -18 23 0
-6 8 9 -25 0
-6 -14 -17 -25 0
8 9 -13 -14 17 -18 23 0
6 -8 -10 11 -14 -18 19 0
-6 -13 18 -25 0
8 9 -18 -19 -22 24 0
8 9 -15 19 -22 24 0
8 9 -13 -18 -22 24 0
8 9 -10 14 -22 24 0
8 9 17 -22 24 0
8 9 -11 -14 -22 24 0
-6 8 9 15 -22 24 0
8 9 -13 -14 -18 23 0
8 9 -13 -14 -15 -18 19 23 0
-6 -8 15 19 0
8 9 -13 -14 -18 -19 23 0
-6 -8 9 -22 0
8 9 -13 -14 -18 23 0
-5 8 9 14 0
-13 -14 -17 -18 -19 23 0
-6 11 -18 -19 22 0
-5 -13 14 18 0
-6 -13 -14 15 -17 -18 23 0
-6 8 9 10 -23 0
-6 10 -14 -17 -23 0
-6 11 -15 -18 19 22 0
-6 10 -13 18 -23 0
-11 -13 -14 -17 -18 23 0
-6 11 -13 -18 22 0
-6 -10 11 14 -18 22 0
-13 -14 -17 -18 23 0
-6 8 11 17 -18 22 0
-6 11 15 -18 22 0
-9 -10 -14 -18 19 22 -25 0
6 -9 -10 -14 -18 19 -25 0
-6 11 -13 -14 -18 22 0
-13 -14 -15 -17 -18 19 23 0
-6 -8 11 -14 -18 22 0
11 -13 -14 -18 19 22 0
-13 -14 -17 -18 -19 23 0
-13 -14 -17 -18 23 0
-10 -13 -14 -18 -19 23 0
-6 -10 -13 -14 15 -18 23 0
-10 -11 -13 -14 -18 23 0
8 -10 -13 -14 17 -18 23 0
-6 8 9 10 -17 0
-6 10 -14 -17 0
6 -10 11 -13 -14 -18 19 0
-6 10 -13 -17 18 0
-10 -13 -14 -18 23 0
2 -6 8 9 22 0
2 -6 -14 -17 22 0
-10 -13 -14 -15 -18 19 23 0
11 -13 -14 -18 22 23 0
2 -6 -13 18 22 0
-10 -13 -14 -18 -19 23 0
-10 -13 -14 -18 23 0
5 -6 -13 -15 18 19 0
5 -6 -10 -13 14 18 0
5 -6 8 -13 17 18 0
6 -10 11 -13 -14 -18 23 0
5 -6 11 -14 -18 22 0
-6 -9 -10 -15 19 -25 0
5 -6 -11 -13 -14 18 0
-6 -9 -10 -13 -18 19 -25 0
-6 -9 -10 14 19 -25 0
5 -6 11 -14 -18 -19 22 0
8 9 10 19 -23 0
10 -14 -17 19 -23 0
-6 -10 11 -18 -19 22 0
10 -13 18 19 -23 0
-6 -10 11 -15 -18 19 22 0
-6 -10 11 -13 -18 22 0
-6 -10 11 14 -18 22 0
5 -6 -13 15 18 0
-6 8 -10 11 17 -18 22 0
-6 -10 11 15 -18 22 0
-6 8 -9 -10 17 19 -25 0
-6 -9 -10 -11 -14 19 -25 0
-6 -9 -10 15 19 -25 0
-9 -13 -14 -18 19 22 -25 0
6 -9 -10 -13 -14 -18 19 -25 0
11 -14 -18 19 22 0
6 -10 11 -14 -18 19 0
5 -6 -14 -18 -19 22 0
-6 -8 11 -14 -18 -19 22 0
-6 -8 11 -14 -18 22 0
6 11 -18 -19 22 0
6 -10 11 -18 -19 0
6 11 -15 -18 19 22 0
6 -10 11 -15 19 0
-6 -8 -9 -25 0
6 8 13 -14 0
8 9 -14 -22 0
6 11 -13 -18 22 0
8 -14 15 19 0
6 -10 11 -13 -18 0
-6 -10 -14 -18 0
5 -6 -10 -18 -19 0
5 -6 -10 -15 19 0
5 -6 -10 -13 -18 0
5 -6 -10 14 0
-9 -22 24 -25 0
5 -6 9 -22 0
5 -6 8 -10 17 0
5 -6 15 19 0
5 -6 -10 -11 -14 0
5 -6 -10 15 0
-6 -10 -14 -18 -19 0
-6 -14 -17 -18 0
5 -6 -14 -17 -18 -19 0
5 -6 -14 -15 -17 19 0
5 -6 -9 -25 0
6 13 -22 24 0
9 -22 24 0
15 19 -22 24 0
5 -6 -13 -14 -17 -18 0
5 -6 -11 -14 -17 0
5 -6 -14 15 -17 0
-6 -14 -17 -18 -19 0
-6 8 9 -14 -18 0
5 -6 8 9 -18 -19 0
8 -9 -14 -25 0
-6 8 9 -14 -18 -19 0
-6 -13 -14 -18 0
-6 -13 -14 -18 -19 0
-6 -13 -14 -15 -18 19 0
-6 -13 -14 -18 0
-6 8 -13 -14 17 -18 0
-6 -11 -13 -14 -18 0
-6 -13 14 15 18 -19 0
8 -13 14 17 18 -19 0
-10 -13 14 18 -19 0
6 -10 11 14 -18 22 0
-6 -13 -14 15 -18 0
-6 -9 -13 18 -25 0
6 -10 11 14 0
-6 -9 -14 -17 -25 0
-6 -13 -14 -18 -19 0
6 8 11 17 -18 22 0
2 -6 -10 -14 -18 22 0
6 8 -10 11 17 0
-6 -9 -13 -14 -18 22 -25 0
-8 -14 -18 -19 22 0
6 -8 -10 -14 -18 -19 0
-8 -14 -18 22 0
2 -6 -10 -14 -18 -19 22 0
-6 -8 -10 -14 -18 0
-6 15 24 25 0
-11 -14 24 25 0
8 17 24 25 0
-10 14 24 25 0
-13 -18 24 25 0
-15 19 24 25 0
-18 -19 24 25 0
-6 -8 -10 -14 -18 -19 0
-6 -8 -10 -14 -15 -18 19 0
-6 10 -13 15 -18 0
10 -11 -13 -14 -18 0
8 10 -13 17 -18 0
10 -13 -18 0
10 -13 -15 -18 19 0
10 -13 -18 -19 0
-6 -8 -10 -13 -14 -18 0
-6 -8 -10 -11 -14 -18 0
-2 -6 13 15 -18 0
-2 -11 13 -14 -18 0
-2 8 13 17 -18 0
-2 -10 13 14 -18 0
-2 13 -15 -18 19 0
-2 13 -18 -19 0
-6 -8 -10 -14 15 -18 0
-6 -8 -10 -14 -18 -19 0
-6 10 15 -24 0
10 -11 -14 -24 0
8 10 17 -24 0
10 -13 -18 -24 0
10 -15 19 -24 0
10 -18 -19 -24 0
5 -6 -14 -18 22 0
5 -6 -13 -14 -18 -19 0
-6 -8 -13 15 18 0
-6 -8 -11 -13 -14 18 0
-6 -8 -10 -13 14 18 0
-6 -8 -13 -15 18 19 0
5 -6 -13 -14 15 -18 0
-6 -10 14 15 -19 0
8 -10 14 17 -19 0
-10 14 -19 0
-10 -13 14 -18 -19 0
-10 14 -18 -19 0
5 -6 -11 -13 -14 -18 0
5 -6 8 -13 -14 17 -18 0
-6 8 9 14 15 -19 0
8 9 14 17 -19 0
8 9 -10 14 -19 0
8 9 -13 14 -18 -19 0
8 9 14 -18 -19 0
6 -8 -10 -14 -18 0
-6 -9 11 -18 19 22 -25 0
6 -9 -10 -13 18 19 -25 0
-9 11 -18 19 22 -25 0
6 -9 -10 11 19 -25 0
-9 10 -13 -18 22 -25 0
-2 -9 13 -18 22 -25 0
-6 -8 -14 -18 22 0
-6 -8 -14 -18 -19 22 0
-6 -8 -13 -14 -18 0
-6 -8 -13 -14 -18 -19 0
-6 -8 -13 -14 -15 -18 19 0
-6 -8 -13 -14 -18 0
-6 -8 -11 -13 -14 -18 0
-6 -8 -13 -14 15 -18 0
-2 6 -9 -10 13 -25 0
5 -9 -18 22 -25 0
5 6 -9 -10 -25 0
-8 -9 -18 22 -25 0
6 -8 -9 -10 -25 0
-6 -8 -13 -14 -18 -19 0
-6 -8 -14 -17 -18 0
-6 14 15 -19 22 0
8 14 17 -19 22 0
-10 14 -19 22 0
-13 14 -18 -19 22 0
14 -18 -19 22 0
-6 -8 -14 -17 -18 -19 0
-6 -10 15 -18 19 0
-10 -11 -14 -18 19 0
8 -10 17 -18 19 0
-10 14 -18 19 0
-10 -13 -18 19 0
-10 -15 -18 19 0
-6 -8 -10 -14 -18 0
-6 -8 -10 -14 -18 -19 0
-6 -8 -9 -18 22 -25 0
-9 10 -14 -18 22 -25 0
6 -10 -14 -18 0
6 -10 -14 -18 -19 0
6 -14 -17 -18 0
6 -14 -17 -18 -19 0
6 8 9 -14 -18 0
6 8 9 -14 -18 -19 0
-8 -18 -19 22 0
6 -8 -10 -18 -19 0
6 -13 -14 -18 0
-9 -13 18 -25 0
-8 -15 -18 19 22 0
-9 -14 -17 -25 0
6 -13 -14 -18 -19 0
6 -13 -14 -15 -18 19 0
-6 13 15 -18 0
-11 13 -14 -18 0
8 13 17 -18 0
-10 13 14 -18 0
13 -15 -18 19 0
13 -18 -19 0
6 -13 -14 -18 0
6 8 -13 -14 17 -18 0
-6 13 15 -22 0
-11 13 -14 -22 0
8 13 17 -22 0
-10 13 14 -22 0
13 -15 19 -22 0
13 -18 -19 -22 0
6 -11 -13 -14 -18 0
6 -13 -14 -18 -19 0
6 -8 -10 -15 -18 19 0
-8 -13 -18 22 0
6 -8 -10 -13 -18 0
-8 -10 14 -18 22 0
6 -8 -10 14 -18 0
-8 -11 -14 -18 22 0
-6 -10 -14 -18 -25 0
-6 -14 15 -17 -18 19 0
-11 -14 -17 -18 19 0
-13 -14 -17 -18 19 0
-14 -15 -17 -18 19 0
-6 -10 -14 -18 -19 -25 0
-6 8 9 15 -18 19 0
8 9 -11 -14 -18 19 0
8 9 17 -18 19 0
8 9 -10 14 -18 19 0
8 9 -13 -18 19 0
8 9 -15 -18 19 0
-6 -9 -13 -14 -18 19 -25 0
-9 -10 -14 -18 -24 0
-9 -10 -14 -18 -19 -24 0
5 -10 -14 -18 -22 0
5 -10 -14 -18 -19 -22 0
10 -14 -18 0
10 -14 -18 -19 0
2 -10 -14 -18 19 22 0
2 -6 -10 15 19 22 0
2 -10 -11 -14 19 22 0
2 8 -10 17 19 22 0
2 -10 14 19 22 0
2 -10 -13 -18 19 22 0
2 -10 -15 19 22 0
-13 -14 -18 19 0
-13 -14 -15 -18 19 0
-6 10 -14 15 -18 0
10 -11 -14 -18 0
8 10 -14 17 -18 0
10 -13 -14 -18 0
10 -14 -15 -18 19 0
10 -14 -18 -19 0
-13 -14 -18 19 0
-6 -9 10 -14 -25 0
6 -8 -10 -11 -14 -18 0
-6 -8 15 -18 22 0
-9 11 -18 22 -25 0
6 -9 -10 11 -25 0
6 -9 -25 0
-6 -9 -14 -17 -18 22 -25 0
-6 -9 11 -18 22 -25 0
6 11 -14 -18 -19 22 0
8 -13 -14 17 -18 19 0
5 -6 -10 15 -22 0
5 -10 -11 -14 -22 0
5 8 -10 17 -22 0
5 -10 14 -22 0
5 -10 -13 -18 -22 0
5 -10 -15 19 -22 0
5 -10 -18 -19 -22 0
-11 -13 -14 -18 19 0
-6 -13 -14 15 -18 19 0
-6 -9 -10 15 -24 0
-9 -10 -11 -14 -24 0
8 -9 -10 17 -24 0
-9 -10 14 -24 0
-9 -10 -13 -18 -24 0
-9 -10 -15 19 -24 0
-9 -10 -18 -19 -24 0
8 9 -14 -18 19 0
6 -10 11 -14 -18 -19 0
-9 -18 24 -25 0
-2 -9 -25 0
-14 -17 -18 19 0
-9 14 -19 -25 0
-2 -6 -9 13 -25 0
-6 -9 -14 -17 19 -25 0
-6 -9 10 -13 -25 0
6 11 -14 -18 22 0
6 -10 11 -14 -18 0
-6 -10 15 -25 0
-6 -10 -11 -14 -25 0
-6 8 -10 17 -25 0
-6 -10 14 -25 0
-6 -10 -13 -18 -25 0
-6 -10 -15 19 -25 0
-6 -10 -18 -19 -25 0
-6 -8 11 -18 -19 22 0
13 -14 -18 -22 0
13 -14 -18 -19 -22 0
13 -14 -18 0
13 -14 -18 -19 0
-9 -13 -14 -18 -25 0
-6 -8 11 -15 -18 19 22 0
-14 -18 22 0
-14 -18 -19 22 0
-14 -15 -18 19 22 0
6 8 9 -11 -14 0
6 8 9 17 0
6 8 9 -10 14 0
6 8 9 -13 -18 0
6 8 9 -15 19 0
6 8 9 -18 -19 0
-13 -14 -18 22 0
8 -14 17 -18 22 0
6 -11 -14 -17 0
6 -13 -14 -17 -18 0
6 -14 -15 -17 19 0
6 -14 -17 -18 -19 0
-11 -14 -18 22 0
-6 -14 15 -18 22 0
6 -10 -11 -14 0
6 8 -10 17 0
6 -10 14 0
6 -10 -13 -18 0
6 -10 -15 19 0
6 -10 -18 -19 0
-14 -18 -19 22 0
-10 -14 -18 19 0
-6 -8 11 -13 -18 22 0
-6 -8 -10 11 14 -18 22 0
-6 -8 11 15 -18 22 0
-6 -10 11 -14 -18 -19 22 0
11 -15 -18 19 22 0
6 -10 11 -15 -18 19 0
11 -13 -18 19 22 0
6 -11 -13 -14 18 0
6 8 -13 17 18 0
6 -10 -13 14 18 0
6 -13 -15 18 19 0
6 -10 11 -13 -18 19 0
-6 -8 -10 15 0
-6 -8 -10 -11 -14 0
-6 -8 -10 14 0
-6 -8 -10 -13 -18 0
-6 -8 -10 -15 19 0
-6 -8 -10 -18 -19 0
10 -14 -18 -24 0
10 -14 -18 -19 -24 0
-6 -8 -14 15 -17 0
-6 -8 -11 -14 -17 0
-6 -8 -13 -14 -17 -18 0
-6 -8 -14 -15 -17 19 0
-6 -8 -14 -17 -18 -19 0
-2 13 -14 -18 0
-2 13 -14 -18 -19 0
10 -13 -14 -18 0
10 -13 -14 -18 -19 0
-14 -18 24 25 0
-14 -18 -19 24 25 0
-6 -9 -13 -14 -18 -25 0
-10 11 14 -18 19 22 0
-8 -10 -14 -18 19 0
-8 -10 -14 -15 -18 19 0
-6 -8 15 22 0
-6 -8 -11 -14 22 0
-6 -8 -10 14 22 0
-6 -8 -13 -18 22 0
-6 -8 -15 19 22 0
-6 -8 -18 -19 22 0
-8 -10 -13 -14 -18 19 0
-8 -10 -11 -14 -18 19 0
-5 -6 -10 14 15 0
-5 8 -10 14 17 0
-5 -10 14 0
-5 -10 -13 14 -18 0
-5 -10 14 -15 19 0
-5 -10 14 -18 -19 0
-6 -8 -10 -14 15 -18 19 0
5 -6 8 9 -14 -18 0
6 -10 11 14 -18 19 0
8 11 17 -18 19 22 0
6 8 -10 11 17 -18 19 0
-6 11 15 -18 19 22 0
-6 -10 11 -14 -18 22 0
11 14 -18 -19 22 0
5 -6 -14 -17 -18 -19 0
-6 -9 -13 18 19 -25 0
5 -6 -14 -17 -18 0
5 -6 -10 -14 -18 -19 0
5 -6 -10 -14 -18 0
6 -10 11 14 -18 -19 0
11 -13 14 -18 -19 22 0
6 -10 11 -13 14 -18 -19 0
5 -6 -18 -19 22 0
5 -6 -15 19 22 0
-10 11 14 -18 -19 22 0
10 -13 -14 -18 19 -23 0
-6 -9 -10 -14 -18 19 -25 0
-13 -14 -18 -19 -22 24 0
-6 -13 -14 15 -18 -22 24 0
-11 -13 -14 -18 -22 24 0
2 -6 -13 -14 -18 22 0
-6 10 -13 -14 -17 -18 0
6 -10 11 14 -19 0
2 -6 -10 15 22 0
2 -6 -10 -11 -14 22 0
2 -6 8 -10 17 22 0
2 -6 -10 14 22 0
2 -6 -10 -13 -18 22 0
2 -6 -10 -15 19 22 0
2 -6 -10 -18 -19 22 0
8 -13 -14 17 -18 -22 24 0
-6 -8 -14 -17 -18 0
-6 -8 -13 -14 -18 0
-13 -14 -18 -22 24 0
8 11 14 17 -18 -19 22 0
-6 10 -13 -14 -18 -23 0
-13 -14 -15 -18 19 -22 24 0
-13 -14 -18 -19 -22 24 0
-13 -14 -18 -22 24 0
8 9 -14 -18 -19 -22 24 0
8 9 -14 -18 -22 24 0
-6 8 9 15 -18 0
-6 8 9 -11 -14 -18 0
-6 8 9 17 -18 0
-6 8 9 -10 14 -18 0
-6 8 9 -13 -18 0
-6 8 9 -15 -18 19 0
-6 8 9 -18 -19 0
-6 -13 -14 -18 -25 0
6 8 -10 11 14 17 -19 0
-6 -14 15 -17 -18 0
-6 -11 -14 -17 -18 0
-6 -13 -14 -17 -18 0
-6 -14 -15 -17 -18 19 0
-6 -14 -17 -18 -19 0
-9 -10 -14 -18 -19 -25 0
-14 -17 -18 -19 -22 24 0
-6 -10 15 -18 0
-6 -10 -11 -14 -18 0
-6 8 -10 17 -18 0
-6 -10 14 -18 0
-6 -10 -13 -18 0
-6 -10 -15 -18 19 0
-6 -10 -18 -19 0
-9 -13 -14 -18 -24 0
5 -13 -14 -18 -22 0
-6 11 14 15 -18 -19 22 0
-6 -9 11 -18 22 -25 0
-9 -14 -17 -18 19 22 -25 0
6 -9 -10 -14 -17 19 -25 0
-6 11 -14 -18 -19 22 0
5 -6 11 15 -18 22 0
-9 -10 -14 -18 -25 0
5 -6 -13 -18 22 0
5 -6 -10 14 22 0
5 -6 8 17 22 0
5 -6 -11 -14 22 0
5 -6 15 22 0
5 -6 8 11 17 -18 22 0
8 -13 -14 -15 18 19 0
8 -13 -14 17 18 0
8 -11 -13 -14 18 0
5 -6 -10 11 14 -18 22 0
5 -6 11 -13 -18 22 0
5 -6 11 -15 -18 19 22 0
5 -6 11 -18 -19 22 0
-6 11 -14 -18 22 0
10 -13 -14 -17 -18 19 0
2 -13 -14 -18 19 22 0
-10 11 -14 -18 19 22 0
-8 10 -14 -18 0
-14 -17 -18 -22 24 0
-10 -14 -18 -19 -22 24 0
6 -10 11 -14 -18 19 0
-6 -14 -18 -19 0
11 -13 -14 -18 -19 22 23 0
9 -14 -18 24 0
-2 -8 13 -14 -18 0
6 -10 11 -13 -14 -18 -19 23 0
5 -6 -13 -14 -18 -19 0
-8 10 -13 -14 -18 0
-6 -9 -10 -14 -18 -19 -25 0
5 -6 -13 -14 -18 0
-10 -14 -18 -22 24 0
11 -13 -14 -15 -18 19 22 23 0
5 -6 8 9 -14 -18 -19 0
-8 -14 -18 24 0
6 -10 11 -13 -14 -15 -18 19 23 0
-8 -13 -14 -18 19 0
-8 -14 -17 -18 19 0
8 10 -14 -18 0
-6 -9 -10 -14 -18 -25 0
-9 -13 -14 -18 23 -25 0
-9 -13 -14 -18 -24 -25 0
11 -13 -14 -18 22 23 0
6 -10 11 -13 -14 -18 23 0
6 -10 11 -13 18 19 0
11 -18 19 22 0
6 -10 11 19 0
11 -14 -17 -18 19 22 0
6 8 -10 11 -13 -14 17 -18 23 0
8 -10 -14 -18 -19 0
8 -10 -14 -15 19 0
8 -10 -13 -14 -18 0
8 -10 -14 17 0
8 -10 -11 -14 0
-6 8 -10 -14 15 0
10 11 -18 19 22 -23 0
-6 11 -13 -14 15 -18 22 23 0
8 -14 -17 -18 -19 0
8 -14 -15 -17 19 0
8 -13 -14 -17 -18 0
8 -11 -14 -17 0
-6 8 -14 15 -17 0
11 -13 -14 -18 -19 22 23 0
6 -10 11 -13 -14 -18 -19 23 0
8 9 -14 -18 -19 0
8 9 -14 -15 19 0
8 9 -13 -14 -18 0
8 9 -14 17 0
-6 8 -13 -14 15 18 0
8 9 -11 -14 0
-6 8 9 -14 15 0
6 -8 -10 0
6 -8 -18 22 0
10 11 -13 -18 22 0
6 -10 19 22 0
-18 19 22 0
5 6 -10 24 0
5 -18 22 24 0
6 -10 11 -18 -19 -22 24 0
6 -10 11 -15 19 -22 24 0
6 -10 11 -13 -18 -22 24 0
6 -10 11 14 -22 24 0
6 8 -10 11 17 -22 24 0
6 8 -10 11 -14 -18 -19 0
8 11 -14 -18 -19 22 0
-6 -9 -10 -18 -19 22 -25 0
-6 -9 -10 -15 -18 19 22 -25 0
-6 -9 -10 -13 -18 22 -25 0
-6 -9 -10 14 -18 22 -25 0
6 -10 -13 -23 0
-13 -18 22 -23 0
-2 6 -10 11 13 0
-2 11 13 -18 22 0
-8 10 -18 22 -23 0
6 -8 -10 11 0
-8 11 -18 22 0
-6 8 -9 -10 17 -18 22 -25 0
-8 10 -17 -18 22 0
2 6 -8 -10 22 0
2 -8 -18 22 0
-6 -9 -10 -11 -14 -18 22 -25 0
2 6 -10 11 19 22 0
2 11 -18 19 22 0
10 11 -14 -18 22 0
-6 -9 -10 15 -18 22 -25 0
10 11 -17 -18 19 22 0
5 6 -10 11 -22 0
6 -9 -10 11 -24 0
-9 11 -18 22 -24 0
-6 11 -18 22 -25 0
-5 6 -10 11 14 0
-5 11 14 -18 22 0
-6 10 11 -18 22 -23 0
-6 8 9 11 -18 22 0
-6 11 -14 -17 -18 22 0
-6 11 -18 22 0
6 -9 -10 -15 19 -25 0
-9 -10 -15 -18 19 22 -25 0
6 -9 -10 -13 -18 19 -25 0
-9 -10 -13 -18 19 22 -25 0
6 -9 -10 14 19 -25 0
-9 -10 14 -18 19 22 -25 0
6 8 -9 -10 17 19 -25 0
8 -9 -10 17 -18 19 22 -25 0
6 -9 -10 -11 -14 19 -25 0
-9 -10 -11 -14 -18 19 22 -25 0
-6 10 11 -17 -18 22 0
2 -6 11 -18 22 0
-6 -9 -10 15 -18 19 22 -25 0
